Value of objective function:              442
x17_18                   0
x21_20                   0
x15_14                   0
x15_16                   0
x10_6                    0
x10_9                    0
x11_7                    0
x24_23                   0
x12_7                    0
x13_4                    0
x13_12                   0
x13_14                   0
x18_12                   0
x18_17                   0
x18_19                   0
x18_22                   0
x18_23                   0
x0_1                     0
x0_3                     1
x1_2                     0
x22_18                   0
x22_19                   0
x22_23                   0
x2_1                     0
x2_3                     0
x3_2                     0
x3_4                     1
x11_12                   0
x4_3                     0
x4_7                     1
x16_12                   0
x16_15                   0
x16_19                   0
x16_20                   0
x5_6                     1
x5_7                     0
x4_13                    0
x7_4                     0
x7_5                     1
x8_9                     0
x20_16                   0
x20_21                   0
x9_10                    0
x9_8                     0
x14_13                   0
x14_15                   0
x19_12                   0
x19_16                   0
x19_18                   0
x19_22                   0
x7_11                    0
x7_12                    0
x23_18                   0
x23_22                   0
x23_24                   0
x12_11                   0
x12_13                   0
x12_16                   0
x12_18                   0
x12_19                   0
